NAME : single
TYPE : ATSP
DIMENSION : 13
EDGE_WEIGHT_TYPE : EXPLICIT
EDGE_WEIGHT_FORMAT : FULL_MATRIX
EDGE_WEIGHT_SECTION
0 928 898 831 845 890 888 466 484 473 518 309 137 
0 0 282 154 406 378 439 448 452 634 487 664 629 
0 80 0 74 367 363 390 412 419 597 450 579 593 
0 154 74 0 293 291 317 334 327 528 383 50000 517 
0 406 367 293 0 127 280 240 331 375 298 433 440 
0 378 363 291 88 0 158 326 303 442 357 495 500 
0 439 390 317 247 158 0 246 304 420 336 473 479 
0 448 412 334 258 326 304 0 93 212 75 218 172 
0 452 419 327 240 303 288 93 0 294 168 288 198 
0 634 597 528 375 442 420 212 294 0 136 286 238 
0 487 450 383 298 357 336 75 168 136 0 273 213 
0 664 579 50000 433 495 473 218 288 286 213 0 232 
0 629 593 517 440 500 479 172 198 238 224 232 0 
